NAME : portcgen-22-1
COMMENT : portcgen N=22, seed=1
TYPE : TSP
DIMENSION : 22
EDGE_WEIGHT_TYPE : EUC_2D
NODE_COORD_SECTION
1 -143622 -293046
2 -104098 -122066
3 -46634 38801
4 -16035 -92284
5 -344663 102438
6 -140649 -224630
7 -294249 83003
8 191456 234360
9 240209 -122116
10 -126221 -129961
11 38840 101754
12 -121024 -36305
13 24967 -7647
14 -250391 381812
15 -78670 72265
16 -105059 -1262
17 -36532 13202
18 -195273 206408
19 2301 252861
20 7254 -270136
21 93952 189786
22 13000 87956
